
Gurobi 11.0.0 (linux64) logging started Fri Apr 12 14:06:24 2024

Set parameter LogFile to value "/lustre1/scratch/348/vsc34888/JointResearch/05.Models/06.Benchmarking/K.Investments_per_hour/RTS24_ByStages_nc90/openStarNet_RTS24_ByStages_nc90.log"
Set parameter Method to value 2
Set parameter MIPFocus to value 1
Set parameter Presolve to value 2
Set parameter RINS to value 100
Set parameter MIPGap to value 0.01
Set parameter Threads to value 36
Set parameter TimeLimit to value 259200
Set parameter IterationLimit to value 760000000
Gurobi Optimizer version 11.0.0 build v11.0.0rc2 (linux64 - "Rocky Linux 8.8 (Green Obsidian)")

CPU model: Intel(R) Xeon(R) Gold 6240 CPU @ 2.60GHz, instruction set [SSE2|AVX|AVX2|AVX512]
Thread count: 36 physical cores, 36 logical processors, using up to 36 threads

Optimize a model with 35013 rows, 21113 columns and 93938 nonzeros
Model fingerprint: 0x8778eb7d
Variable types: 21083 continuous, 30 integer (30 binary)
Coefficient statistics:
  Matrix range     [3e-02, 4e+02]
  Objective range  [1e+00, 1e+00]
  Bounds range     [4e-04, 3e+00]
  RHS range        [4e-04, 3e+00]
Presolve removed 18784 rows and 9963 columns
Presolve time: 0.21s
Presolved: 16229 rows, 11150 columns, 57229 nonzeros
Variable types: 11120 continuous, 30 integer (30 binary)
Found heuristic solution: objective 295.9018383
Root relaxation presolved: 16229 rows, 11150 columns, 57229 nonzeros

Root barrier log...

Ordering time: 0.01s

Barrier statistics:
 Dense cols : 30
 AA' NZ     : 1.200e+05
 Factor NZ  : 3.129e+05 (roughly 14 MB of memory)
 Factor Ops : 6.662e+06 (less than 1 second per iteration)
 Threads    : 36

                  Objective                Residual
Iter       Primal          Dual         Primal    Dual     Compl     Time
   0   8.19037322e+05 -5.06281550e+07  7.09e+00 1.34e+02  4.39e+03     0s
   1   1.40444353e+05 -1.49173075e+07  1.01e+00 2.44e-09  6.64e+02     0s
   2   4.52174570e+04 -2.31795411e+06  1.70e-01 7.36e-10  8.21e+01     0s
   3   1.92575851e+04 -3.23022192e+05  3.50e-03 3.25e-11  1.00e+01     0s
   4   5.17055700e+03 -2.66893335e+04  2.81e-04 1.49e-11  9.30e-01     0s
   5   7.80826185e+02 -5.58333901e+03  1.16e-05 2.97e-12  1.86e-01     0s
   6   5.13369355e+02 -1.74402183e+03  2.11e-06 9.48e-13  6.59e-02     0s
   7   3.84340577e+02 -5.41309302e+02  9.53e-07 4.55e-13  2.70e-02     0s
   8   2.79744305e+02 -9.71406293e+01  3.63e-07 9.09e-13  1.10e-02     0s
   9   2.47666884e+02  3.49336829e+01  2.43e-07 4.55e-13  6.21e-03     0s
  10   2.20372527e+02  1.02938943e+02  1.46e-07 9.09e-13  3.43e-03     1s
  11   1.97931786e+02  1.54747240e+02  6.83e-08 9.09e-13  1.26e-03     1s
  12   1.87273837e+02  1.61283914e+02  3.11e-08 9.09e-13  7.58e-04     1s
  13   1.83335970e+02  1.67740401e+02  1.88e-08 4.55e-13  4.55e-04     1s
  14   1.81491327e+02  1.72408457e+02  1.20e-08 9.09e-13  2.65e-04     1s
  15   1.80283371e+02  1.74093468e+02  8.14e-09 9.09e-13  1.81e-04     1s
  16   1.79534890e+02  1.76422701e+02  5.62e-09 4.55e-13  9.08e-05     1s
  17   1.79101086e+02  1.76704856e+02  4.20e-09 9.09e-13  6.99e-05     1s
  18   1.78675668e+02  1.76955778e+02  2.87e-09 9.09e-13  5.02e-05     1s
  19   1.78567463e+02  1.77226041e+02  2.47e-09 4.55e-13  3.91e-05     1s
  20   1.78380603e+02  1.77389232e+02  1.83e-09 9.09e-13  2.89e-05     1s
  21   1.78248829e+02  1.77499801e+02  1.39e-09 4.55e-13  2.19e-05     1s
  22   1.78179581e+02  1.77579924e+02  1.17e-09 9.09e-13  1.75e-05     1s
  23   1.78001487e+02  1.77696647e+02  5.46e-10 9.09e-13  8.90e-06     1s
  24   1.77933931e+02  1.77807413e+02  3.18e-10 9.09e-13  3.69e-06     1s
  25   1.77892779e+02  1.77827399e+02  7.98e-10 9.09e-13  1.91e-06     1s
  26   1.77869507e+02  1.77833413e+02  3.95e-10 4.55e-13  1.05e-06     1s
  27   1.77867213e+02  1.77834858e+02  3.01e-10 4.55e-13  9.44e-07     1s
  28   1.77852734e+02  1.77839066e+02  1.25e-10 4.55e-13  3.99e-07     1s
  29   1.77845167e+02  1.77844017e+02  1.13e-11 6.82e-13  3.35e-08     1s
  30   1.77844342e+02  1.77844301e+02  3.21e-09 9.09e-13  1.19e-09     1s
  31   1.77844329e+02  1.77844329e+02  7.63e-10 9.09e-13  1.83e-11     1s

Barrier solved model in 31 iterations and 0.70 seconds (0.70 work units)
Optimal objective 1.77844329e+02


Root relaxation: objective 1.778443e+02, 2288 iterations, 0.47 seconds (0.32 work units)

    Nodes    |    Current Node    |     Objective Bounds      |     Work
 Expl Unexpl |  Obj  Depth IntInf | Incumbent    BestBd   Gap | It/Node Time

     0     0  177.84433    0   20  295.90184  177.84433  39.9%     -    1s
     0     0  180.38420    0   18  295.90184  180.38420  39.0%     -    1s
     0     0  180.45747    0   16  295.90184  180.45747  39.0%     -    1s
     0     0  180.45747    0   16  295.90184  180.45747  39.0%     -    1s
     0     0  181.07096    0   16  295.90184  181.07096  38.8%     -    2s
H    0     0                     288.2573280  181.07096  37.2%     -    2s
H    0     0                     276.5860111  181.10062  34.5%     -    2s
     0     0  181.10062    0   17  276.58601  181.10062  34.5%     -    2s
     0     0  181.10996    0   17  276.58601  181.10996  34.5%     -    2s
     0     0  181.10996    0   17  276.58601  181.10996  34.5%     -    2s
H    0     0                     262.1513172  181.32100  30.8%     -    3s
     0     0  181.32100    0   16  262.15132  181.32100  30.8%     -    3s
     0     0  181.34613    0   17  262.15132  181.34613  30.8%     -    3s
     0     0  181.35006    0   17  262.15132  181.35006  30.8%     -    3s
     0     0  181.35092    0   17  262.15132  181.35092  30.8%     -    3s
     0     0  181.35092    0   17  262.15132  181.35092  30.8%     -    3s
     0     0  181.41082    0   16  262.15132  181.41082  30.8%     -    3s
     0     0  181.41753    0   16  262.15132  181.41753  30.8%     -    3s
     0     0  181.41779    0   16  262.15132  181.41779  30.8%     -    3s
H    0     0                     241.2527756  181.41779  24.8%     -    5s
     0     0  181.42084    0   16  241.25278  181.42084  24.8%     -    5s
H    0     0                     239.8632705  181.42084  24.4%     -    7s
H    0     0                     212.2587914  181.42084  14.5%     -   29s
     0     2  181.42084    0   16  212.25879  181.42084  14.5%     -   29s
     3     8  182.58632    2   18  212.25879  181.53504  14.5%  1308   30s
H   97   132                     207.6899243  184.43770  11.2%   658   60s
H   98   132                     207.1273464  184.45189  10.9%   658   60s
H  101   132                     206.1567038  184.45189  10.5%   652   60s
   738   435  189.90488    8   13  206.15670  185.22174  10.2%   470   65s
  1094   492     cutoff   13       206.15670  185.22174  10.2%   441   74s
  1214   486  203.45960   12   11  206.15670  185.22174  10.2%   431   77s
  1288   502     cutoff   13       206.15670  188.01449  8.80%   427   83s
  1801   595     cutoff   13       206.15670  189.13796  8.26%   411   85s
  3782   887  200.14051   13   10  206.15670  192.82295  6.47%   344   90s
  7293  1178  204.71841   13    9  206.15670  201.01885  2.49%   279  124s
  7676  1198  203.46525   17    5  206.15670  201.11975  2.44%   275  135s
  9097  1256     cutoff   18       206.15670  201.88350  2.07%   259  157s
  9598  1254     cutoff   20       206.15670  202.02278  2.01%   254  186s
 13379    16     cutoff   16       206.15670  204.07583  1.01%   222  191s

Cutting planes:
  Gomory: 1
  Implied bound: 104
  MIR: 628
  Relax-and-lift: 18

Explored 14189 nodes (3064093 simplex iterations) in 191.22 seconds (256.22 work units)
Thread count was 36 (of 36 available processors)

Solution count 10: 206.157 207.127 207.69 ... 295.902

Optimal solution found (tolerance 1.00e-02)
Best objective 2.061567037605e+02, best bound 2.052939592163e+02, gap 0.4185%

Gurobi 11.0.0 (linux64) logging started Fri Apr 12 14:09:40 2024

Set parameter LogFile to value "/lustre1/scratch/348/vsc34888/JointResearch/05.Models/06.Benchmarking/K.Investments_per_hour/RTS24_ByStages_nc90/openStarNet_RTS24_ByStages_nc90.log"
Set parameter Method to value 2
Set parameter MIPFocus to value 1
Set parameter Presolve to value 2
Set parameter RINS to value 100
Set parameter MIPGap to value 0.01
Set parameter Threads to value 36
Set parameter TimeLimit to value 259200
Set parameter IterationLimit to value 760000000
Gurobi Optimizer version 11.0.0 build v11.0.0rc2 (linux64 - "Rocky Linux 8.8 (Green Obsidian)")

CPU model: Intel(R) Xeon(R) Gold 6240 CPU @ 2.60GHz, instruction set [SSE2|AVX|AVX2|AVX512]
Thread count: 36 physical cores, 36 logical processors, using up to 36 threads

Optimize a model with 35013 rows, 21083 columns and 83108 nonzeros
Model fingerprint: 0x6031311a
Coefficient statistics:
  Matrix range     [3e-02, 4e+02]
  Objective range  [1e+00, 1e+00]
  Bounds range     [4e-04, 3e+00]
  RHS range        [4e-04, 4e+01]
Presolve removed 30004 rows and 12293 columns
Presolve time: 0.04s
Presolved: 5009 rows, 8810 columns, 21605 nonzeros

Ordering time: 0.00s

Barrier statistics:
 AA' NZ     : 1.198e+04
 Factor NZ  : 4.243e+04 (roughly 4 MB of memory)
 Factor Ops : 5.702e+05 (less than 1 second per iteration)
 Threads    : 1

                  Objective                Residual
Iter       Primal          Dual         Primal    Dual     Compl     Time
   0   2.21517204e+06 -5.20314606e+07  7.04e+00 1.86e+03  2.56e+04     0s
   1   1.73844305e+05 -3.17945862e+07  5.00e-01 2.60e-11  3.42e+03     0s
   2   6.41696190e+04 -8.51477949e+06  1.43e-01 7.33e-11  7.49e+02     0s
   3   3.68554500e+04 -3.10037202e+06  3.59e-02 3.27e-11  2.39e+02     0s
   4   2.67751185e+04 -3.47671577e+05  1.31e-03 2.36e-11  2.63e+01     0s
   5   1.28441334e+04 -8.73811349e+04  1.25e-04 4.87e-11  6.99e+00     0s
   6   4.34035690e+03 -1.61857704e+04  3.15e-05 1.60e-11  1.43e+00     0s
   7   5.75839401e+02 -3.03905815e+03  9.69e-08 7.28e-12  2.52e-01     0s
   8   4.39967618e+02 -9.85137305e+02  2.99e-10 3.64e-12  9.94e-02     0s
   9   3.23042160e+02 -1.85284830e+02  7.38e-11 7.28e-12  3.55e-02     0s
  10   2.70055874e+02  4.29981429e+01  3.32e-11 3.64e-12  1.58e-02     0s
  11   2.40565833e+02  1.32381445e+02  1.72e-11 3.64e-12  7.55e-03     0s
  12   2.24300413e+02  1.71745962e+02  8.65e-12 3.64e-12  3.67e-03     0s
  13   2.11916396e+02  1.98979639e+02  2.51e-12 3.64e-12  9.02e-04     0s
  14   2.07478974e+02  2.05232406e+02  1.42e-12 5.46e-12  1.57e-04     0s
  15   2.06496482e+02  2.05936346e+02  1.21e-12 3.64e-12  3.91e-05     0s
  16   2.06203745e+02  2.06119683e+02  6.73e-12 7.28e-12  5.86e-06     0s
  17   2.06157423e+02  2.06152579e+02  3.78e-11 7.28e-12  3.38e-07     0s
  18   2.06156736e+02  2.06156510e+02  3.17e-11 7.28e-12  1.57e-08     0s
  19   2.06156704e+02  2.06156704e+02  2.47e-11 7.28e-12  1.58e-11     0s
  20   2.06156704e+02  2.06156704e+02  3.97e-11 7.28e-12  1.58e-14     0s

Barrier solved model in 20 iterations and 0.10 seconds (0.10 work units)
Optimal objective 2.06156704e+02

Crossover log...

    1041 DPushes remaining with DInf 0.0000000e+00                 0s
       0 DPushes remaining with DInf 0.0000000e+00                 0s

     276 PPushes remaining with PInf 0.0000000e+00                 0s
       0 PPushes remaining with PInf 0.0000000e+00                 0s

  Push phase complete: Pinf 0.0000000e+00, Dinf 4.0106427e-12      0s

Iteration    Objective       Primal Inf.    Dual Inf.      Time
     293    2.0615670e+02   0.000000e+00   0.000000e+00      0s

Use crossover to convert LP symmetric solution to basic solution...
Crossover log...

     160 PPushes remaining with PInf 0.0000000e+00                 0s
       0 PPushes remaining with PInf 0.0000000e+00                 0s

  Push phase complete: Pinf 0.0000000e+00, Dinf 1.7674822e-12      0s

Iteration    Objective       Primal Inf.    Dual Inf.      Time
     456    2.0615670e+02   0.000000e+00   0.000000e+00      0s

Solved in 456 iterations and 0.14 seconds (0.12 work units)
Optimal objective  2.061567038e+02
